g3 0 1 0	# problem osborneb
 11 0 1 0 0	# vars, constraints, objectives, ranges, eqns
 0 1	# nonlinear constraints, objectives
 0 0	# network constraints: nonlinear, linear
 0 11 0	# nonlinear vars in constraints, objectives, both
 0 0 0 1	# linear network variables; functions; arith, flags
 0 0 0 0 0	# discrete variables: binary, integer, nonlinear (b,c,o)
 0 11	# nonzeros in Jacobian, gradients
 0 0	# max name lengths: constraints, variables
 0 0 0 0 0	# common exprs: b,c,o,c1,o1
b
3
3
3
3
3
3
3
3
3
3
3
x11
0 1.3
1 0.65
2 0.65
3 0.7
4 0.6
5 3
6 5
7 7
8 2
9 4.5
10 5.5
O0 0
o54
65
o5
o1
o1
o1
o1
n1.366
v0
o2
v1
o44
o16
o2
o5
o16
v8
n2
v5
o2
v2
o44
o16
o2
o5
o16
v9
n2
v6
o2
v3
o44
o16
o2
o5
o16
v10
n2
v7
n2
o5
o1
o1
o1
o1
n1.191
o2
v0
o44
o16
o2
n0.1
v4
o2
v1
o44
o16
o2
o5
o1
n0.1
v8
n2
v5
o2
v2
o44
o16
o2
o5
o1
n0.1
v9
n2
v6
o2
v3
o44
o16
o2
o5
o1
n0.1
v10
n2
v7
n2
o5
o1
o1
o1
o1
n1.112
o2
v0
o44
o16
o2
n0.2
v4
o2
v1
o44
o16
o2
o5
o1
n0.2
v8
n2
v5
o2
v2
o44
o16
o2
o5
o1
n0.2
v9
n2
v6
o2
v3
o44
o16
o2
o5
o1
n0.2
v10
n2
v7
n2
o5
o1
o1
o1
o1
n1.013
o2
v0
o44
o16
o2
n0.3
v4
o2
v1
o44
o16
o2
o5
o1
n0.3
v8
n2
v5
o2
v2
o44
o16
o2
o5
o1
n0.3
v9
n2
v6
o2
v3
o44
o16
o2
o5
o1
n0.3
v10
n2
v7
n2
o5
o1
o1
o1
o1
n0.991
o2
v0
o44
o16
o2
n0.4
v4
o2
v1
o44
o16
o2
o5
o1
n0.4
v8
n2
v5
o2
v2
o44
o16
o2
o5
o1
n0.4
v9
n2
v6
o2
v3
o44
o16
o2
o5
o1
n0.4
v10
n2
v7
n2
o5
o1
o1
o1
o1
n0.885
o2
v0
o44
o16
o2
n0.5
v4
o2
v1
o44
o16
o2
o5
o1
n0.5
v8
n2
v5
o2
v2
o44
o16
o2
o5
o1
n0.5
v9
n2
v6
o2
v3
o44
o16
o2
o5
o1
n0.5
v10
n2
v7
n2
o5
o1
o1
o1
o1
n0.831
o2
v0
o44
o16
o2
n0.6
v4
o2
v1
o44
o16
o2
o5
o1
n0.6
v8
n2
v5
o2
v2
o44
o16
o2
o5
o1
n0.6
v9
n2
v6
o2
v3
o44
o16
o2
o5
o1
n0.6
v10
n2
v7
n2
o5
o1
o1
o1
o1
n0.847
o2
v0
o44
o16
o2
n0.7
v4
o2
v1
o44
o16
o2
o5
o1
n0.7
v8
n2
v5
o2
v2
o44
o16
o2
o5
o1
n0.7
v9
n2
v6
o2
v3
o44
o16
o2
o5
o1
n0.7
v10
n2
v7
n2
o5
o1
o1
o1
o1
n0.786
o2
v0
o44
o16
o2
n0.8
v4
o2
v1
o44
o16
o2
o5
o1
n0.8
v8
n2
v5
o2
v2
o44
o16
o2
o5
o1
n0.8
v9
n2
v6
o2
v3
o44
o16
o2
o5
o1
n0.8
v10
n2
v7
n2
o5
o1
o1
o1
o1
n0.725
o2
v0
o44
o16
o2
n0.9
v4
o2
v1
o44
o16
o2
o5
o1
n0.9
v8
n2
v5
o2
v2
o44
o16
o2
o5
o1
n0.9
v9
n2
v6
o2
v3
o44
o16
o2
o5
o1
n0.9
v10
n2
v7
n2
o5
o1
o1
o1
o1
n0.746
o2
v0
o44
o16
v4
o2
v1
o44
o16
o2
o5
o1
n1
v8
n2
v5
o2
v2
o44
o16
o2
o5
o1
n1
v9
n2
v6
o2
v3
o44
o16
o2
o5
o1
n1
v10
n2
v7
n2
o5
o1
o1
o1
o1
n0.679
o2
v0
o44
o16
o2
n1.1
v4
o2
v1
o44
o16
o2
o5
o1
n1.1
v8
n2
v5
o2
v2
o44
o16
o2
o5
o1
n1.1
v9
n2
v6
o2
v3
o44
o16
o2
o5
o1
n1.1
v10
n2
v7
n2
o5
o1
o1
o1
o1
n0.608
o2
v0
o44
o16
o2
n1.2
v4
o2
v1
o44
o16
o2
o5
o1
n1.2
v8
n2
v5
o2
v2
o44
o16
o2
o5
o1
n1.2
v9
n2
v6
o2
v3
o44
o16
o2
o5
o1
n1.2
v10
n2
v7
n2
o5
o1
o1
o1
o1
n0.655
o2
v0
o44
o16
o2
n1.3
v4
o2
v1
o44
o16
o2
o5
o1
n1.3
v8
n2
v5
o2
v2
o44
o16
o2
o5
o1
n1.3
v9
n2
v6
o2
v3
o44
o16
o2
o5
o1
n1.3
v10
n2
v7
n2
o5
o1
o1
o1
o1
n0.616
o2
v0
o44
o16
o2
n1.4
v4
o2
v1
o44
o16
o2
o5
o1
n1.4
v8
n2
v5
o2
v2
o44
o16
o2
o5
o1
n1.4
v9
n2
v6
o2
v3
o44
o16
o2
o5
o1
n1.4
v10
n2
v7
n2
o5
o1
o1
o1
o1
n0.606
o2
v0
o44
o16
o2
n1.5
v4
o2
v1
o44
o16
o2
o5
o1
n1.5
v8
n2
v5
o2
v2
o44
o16
o2
o5
o1
n1.5
v9
n2
v6
o2
v3
o44
o16
o2
o5
o1
n1.5
v10
n2
v7
n2
o5
o1
o1
o1
o1
n0.602
o2
v0
o44
o16
o2
n1.6
v4
o2
v1
o44
o16
o2
o5
o1
n1.6
v8
n2
v5
o2
v2
o44
o16
o2
o5
o1
n1.6
v9
n2
v6
o2
v3
o44
o16
o2
o5
o1
n1.6
v10
n2
v7
n2
o5
o1
o1
o1
o1
n0.626
o2
v0
o44
o16
o2
n1.7
v4
o2
v1
o44
o16
o2
o5
o1
n1.7
v8
n2
v5
o2
v2
o44
o16
o2
o5
o1
n1.7
v9
n2
v6
o2
v3
o44
o16
o2
o5
o1
n1.7
v10
n2
v7
n2
o5
o1
o1
o1
o1
n0.651
o2
v0
o44
o16
o2
n1.8
v4
o2
v1
o44
o16
o2
o5
o1
n1.8
v8
n2
v5
o2
v2
o44
o16
o2
o5
o1
n1.8
v9
n2
v6
o2
v3
o44
o16
o2
o5
o1
n1.8
v10
n2
v7
n2
o5
o1
o1
o1
o1
n0.724
o2
v0
o44
o16
o2
n1.9
v4
o2
v1
o44
o16
o2
o5
o1
n1.9
v8
n2
v5
o2
v2
o44
o16
o2
o5
o1
n1.9
v9
n2
v6
o2
v3
o44
o16
o2
o5
o1
n1.9
v10
n2
v7
n2
o5
o1
o1
o1
o1
n0.649
o2
v0
o44
o16
o2
n2
v4
o2
v1
o44
o16
o2
o5
o1
n2
v8
n2
v5
o2
v2
o44
o16
o2
o5
o1
n2
v9
n2
v6
o2
v3
o44
o16
o2
o5
o1
n2
v10
n2
v7
n2
o5
o1
o1
o1
o1
n0.649
o2
v0
o44
o16
o2
n2.1
v4
o2
v1
o44
o16
o2
o5
o1
n2.1
v8
n2
v5
o2
v2
o44
o16
o2
o5
o1
n2.1
v9
n2
v6
o2
v3
o44
o16
o2
o5
o1
n2.1
v10
n2
v7
n2
o5
o1
o1
o1
o1
n0.694
o2
v0
o44
o16
o2
n2.2
v4
o2
v1
o44
o16
o2
o5
o1
n2.2
v8
n2
v5
o2
v2
o44
o16
o2
o5
o1
n2.2
v9
n2
v6
o2
v3
o44
o16
o2
o5
o1
n2.2
v10
n2
v7
n2
o5
o1
o1
o1
o1
n0.644
o2
v0
o44
o16
o2
n2.3
v4
o2
v1
o44
o16
o2
o5
o1
n2.3
v8
n2
v5
o2
v2
o44
o16
o2
o5
o1
n2.3
v9
n2
v6
o2
v3
o44
o16
o2
o5
o1
n2.3
v10
n2
v7
n2
o5
o1
o1
o1
o1
n0.624
o2
v0
o44
o16
o2
n2.4
v4
o2
v1
o44
o16
o2
o5
o1
n2.4
v8
n2
v5
o2
v2
o44
o16
o2
o5
o1
n2.4
v9
n2
v6
o2
v3
o44
o16
o2
o5
o1
n2.4
v10
n2
v7
n2
o5
o1
o1
o1
o1
n0.661
o2
v0
o44
o16
o2
n2.5
v4
o2
v1
o44
o16
o2
o5
o1
n2.5
v8
n2
v5
o2
v2
o44
o16
o2
o5
o1
n2.5
v9
n2
v6
o2
v3
o44
o16
o2
o5
o1
n2.5
v10
n2
v7
n2
o5
o1
o1
o1
o1
n0.612
o2
v0
o44
o16
o2
n2.6
v4
o2
v1
o44
o16
o2
o5
o1
n2.6
v8
n2
v5
o2
v2
o44
o16
o2
o5
o1
n2.6
v9
n2
v6
o2
v3
o44
o16
o2
o5
o1
n2.6
v10
n2
v7
n2
o5
o1
o1
o1
o1
n0.558
o2
v0
o44
o16
o2
n2.7
v4
o2
v1
o44
o16
o2
o5
o1
n2.7
v8
n2
v5
o2
v2
o44
o16
o2
o5
o1
n2.7
v9
n2
v6
o2
v3
o44
o16
o2
o5
o1
n2.7
v10
n2
v7
n2
o5
o1
o1
o1
o1
n0.533
o2
v0
o44
o16
o2
n2.8
v4
o2
v1
o44
o16
o2
o5
o1
n2.8
v8
n2
v5
o2
v2
o44
o16
o2
o5
o1
n2.8
v9
n2
v6
o2
v3
o44
o16
o2
o5
o1
n2.8
v10
n2
v7
n2
o5
o1
o1
o1
o1
n0.495
o2
v0
o44
o16
o2
n2.9
v4
o2
v1
o44
o16
o2
o5
o1
n2.9
v8
n2
v5
o2
v2
o44
o16
o2
o5
o1
n2.9
v9
n2
v6
o2
v3
o44
o16
o2
o5
o1
n2.9
v10
n2
v7
n2
o5
o1
o1
o1
o1
n0.5
o2
v0
o44
o16
o2
n3
v4
o2
v1
o44
o16
o2
o5
o1
n3
v8
n2
v5
o2
v2
o44
o16
o2
o5
o1
n3
v9
n2
v6
o2
v3
o44
o16
o2
o5
o1
n3
v10
n2
v7
n2
o5
o1
o1
o1
o1
n0.423
o2
v0
o44
o16
o2
n3.1
v4
o2
v1
o44
o16
o2
o5
o1
n3.1
v8
n2
v5
o2
v2
o44
o16
o2
o5
o1
n3.1
v9
n2
v6
o2
v3
o44
o16
o2
o5
o1
n3.1
v10
n2
v7
n2
o5
o1
o1
o1
o1
n0.395
o2
v0
o44
o16
o2
n3.2
v4
o2
v1
o44
o16
o2
o5
o1
n3.2
v8
n2
v5
o2
v2
o44
o16
o2
o5
o1
n3.2
v9
n2
v6
o2
v3
o44
o16
o2
o5
o1
n3.2
v10
n2
v7
n2
o5
o1
o1
o1
o1
n0.375
o2
v0
o44
o16
o2
n3.3
v4
o2
v1
o44
o16
o2
o5
o1
n3.3
v8
n2
v5
o2
v2
o44
o16
o2
o5
o1
n3.3
v9
n2
v6
o2
v3
o44
o16
o2
o5
o1
n3.3
v10
n2
v7
n2
o5
o1
o1
o1
o1
n0.372
o2
v0
o44
o16
o2
n3.4
v4
o2
v1
o44
o16
o2
o5
o1
n3.4
v8
n2
v5
o2
v2
o44
o16
o2
o5
o1
n3.4
v9
n2
v6
o2
v3
o44
o16
o2
o5
o1
n3.4
v10
n2
v7
n2
o5
o1
o1
o1
o1
n0.391
o2
v0
o44
o16
o2
n3.5
v4
o2
v1
o44
o16
o2
o5
o1
n3.5
v8
n2
v5
o2
v2
o44
o16
o2
o5
o1
n3.5
v9
n2
v6
o2
v3
o44
o16
o2
o5
o1
n3.5
v10
n2
v7
n2
o5
o1
o1
o1
o1
n0.396
o2
v0
o44
o16
o2
n3.6
v4
o2
v1
o44
o16
o2
o5
o1
n3.6
v8
n2
v5
o2
v2
o44
o16
o2
o5
o1
n3.6
v9
n2
v6
o2
v3
o44
o16
o2
o5
o1
n3.6
v10
n2
v7
n2
o5
o1
o1
o1
o1
n0.405
o2
v0
o44
o16
o2
n3.7
v4
o2
v1
o44
o16
o2
o5
o1
n3.7
v8
n2
v5
o2
v2
o44
o16
o2
o5
o1
n3.7
v9
n2
v6
o2
v3
o44
o16
o2
o5
o1
n3.7
v10
n2
v7
n2
o5
o1
o1
o1
o1
n0.428
o2
v0
o44
o16
o2
n3.8
v4
o2
v1
o44
o16
o2
o5
o1
n3.8
v8
n2
v5
o2
v2
o44
o16
o2
o5
o1
n3.8
v9
n2
v6
o2
v3
o44
o16
o2
o5
o1
n3.8
v10
n2
v7
n2
o5
o1
o1
o1
o1
n0.429
o2
v0
o44
o16
o2
n3.9
v4
o2
v1
o44
o16
o2
o5
o1
n3.9
v8
n2
v5
o2
v2
o44
o16
o2
o5
o1
n3.9
v9
n2
v6
o2
v3
o44
o16
o2
o5
o1
n3.9
v10
n2
v7
n2
o5
o1
o1
o1
o1
n0.523
o2
v0
o44
o16
o2
n4
v4
o2
v1
o44
o16
o2
o5
o1
n4
v8
n2
v5
o2
v2
o44
o16
o2
o5
o1
n4
v9
n2
v6
o2
v3
o44
o16
o2
o5
o1
n4
v10
n2
v7
n2
o5
o1
o1
o1
o1
n0.562
o2
v0
o44
o16
o2
n4.1
v4
o2
v1
o44
o16
o2
o5
o1
n4.1
v8
n2
v5
o2
v2
o44
o16
o2
o5
o1
n4.1
v9
n2
v6
o2
v3
o44
o16
o2
o5
o1
n4.1
v10
n2
v7
n2
o5
o1
o1
o1
o1
n0.607
o2
v0
o44
o16
o2
n4.2
v4
o2
v1
o44
o16
o2
o5
o1
n4.2
v8
n2
v5
o2
v2
o44
o16
o2
o5
o1
n4.2
v9
n2
v6
o2
v3
o44
o16
o2
o5
o1
n4.2
v10
n2
v7
n2
o5
o1
o1
o1
o1
n0.653
o2
v0
o44
o16
o2
n4.3
v4
o2
v1
o44
o16
o2
o5
o1
n4.3
v8
n2
v5
o2
v2
o44
o16
o2
o5
o1
n4.3
v9
n2
v6
o2
v3
o44
o16
o2
o5
o1
n4.3
v10
n2
v7
n2
o5
o1
o1
o1
o1
n0.672
o2
v0
o44
o16
o2
n4.4
v4
o2
v1
o44
o16
o2
o5
o1
n4.4
v8
n2
v5
o2
v2
o44
o16
o2
o5
o1
n4.4
v9
n2
v6
o2
v3
o44
o16
o2
o5
o1
n4.4
v10
n2
v7
n2
o5
o1
o1
o1
o1
n0.708
o2
v0
o44
o16
o2
n4.5
v4
o2
v1
o44
o16
o2
o5
o1
n4.5
v8
n2
v5
o2
v2
o44
o16
o2
o5
o1
n4.5
v9
n2
v6
o2
v3
o44
o16
o2
o5
o1
n4.5
v10
n2
v7
n2
o5
o1
o1
o1
o1
n0.633
o2
v0
o44
o16
o2
n4.6
v4
o2
v1
o44
o16
o2
o5
o1
n4.6
v8
n2
v5
o2
v2
o44
o16
o2
o5
o1
n4.6
v9
n2
v6
o2
v3
o44
o16
o2
o5
o1
n4.6
v10
n2
v7
n2
o5
o1
o1
o1
o1
n0.668
o2
v0
o44
o16
o2
n4.7
v4
o2
v1
o44
o16
o2
o5
o1
n4.7
v8
n2
v5
o2
v2
o44
o16
o2
o5
o1
n4.7
v9
n2
v6
o2
v3
o44
o16
o2
o5
o1
n4.7
v10
n2
v7
n2
o5
o1
o1
o1
o1
n0.645
o2
v0
o44
o16
o2
n4.8
v4
o2
v1
o44
o16
o2
o5
o1
n4.8
v8
n2
v5
o2
v2
o44
o16
o2
o5
o1
n4.8
v9
n2
v6
o2
v3
o44
o16
o2
o5
o1
n4.8
v10
n2
v7
n2
o5
o1
o1
o1
o1
n0.632
o2
v0
o44
o16
o2
n4.9
v4
o2
v1
o44
o16
o2
o5
o1
n4.9
v8
n2
v5
o2
v2
o44
o16
o2
o5
o1
n4.9
v9
n2
v6
o2
v3
o44
o16
o2
o5
o1
n4.9
v10
n2
v7
n2
o5
o1
o1
o1
o1
n0.591
o2
v0
o44
o16
o2
n5
v4
o2
v1
o44
o16
o2
o5
o1
n5
v8
n2
v5
o2
v2
o44
o16
o2
o5
o1
n5
v9
n2
v6
o2
v3
o44
o16
o2
o5
o1
n5
v10
n2
v7
n2
o5
o1
o1
o1
o1
n0.559
o2
v0
o44
o16
o2
n5.1
v4
o2
v1
o44
o16
o2
o5
o1
n5.1
v8
n2
v5
o2
v2
o44
o16
o2
o5
o1
n5.1
v9
n2
v6
o2
v3
o44
o16
o2
o5
o1
n5.1
v10
n2
v7
n2
o5
o1
o1
o1
o1
n0.597
o2
v0
o44
o16
o2
n5.2
v4
o2
v1
o44
o16
o2
o5
o1
n5.2
v8
n2
v5
o2
v2
o44
o16
o2
o5
o1
n5.2
v9
n2
v6
o2
v3
o44
o16
o2
o5
o1
n5.2
v10
n2
v7
n2
o5
o1
o1
o1
o1
n0.625
o2
v0
o44
o16
o2
n5.3
v4
o2
v1
o44
o16
o2
o5
o1
n5.3
v8
n2
v5
o2
v2
o44
o16
o2
o5
o1
n5.3
v9
n2
v6
o2
v3
o44
o16
o2
o5
o1
n5.3
v10
n2
v7
n2
o5
o1
o1
o1
o1
n0.739
o2
v0
o44
o16
o2
n5.4
v4
o2
v1
o44
o16
o2
o5
o1
n5.4
v8
n2
v5
o2
v2
o44
o16
o2
o5
o1
n5.4
v9
n2
v6
o2
v3
o44
o16
o2
o5
o1
n5.4
v10
n2
v7
n2
o5
o1
o1
o1
o1
n0.71
o2
v0
o44
o16
o2
n5.5
v4
o2
v1
o44
o16
o2
o5
o1
n5.5
v8
n2
v5
o2
v2
o44
o16
o2
o5
o1
n5.5
v9
n2
v6
o2
v3
o44
o16
o2
o5
o1
n5.5
v10
n2
v7
n2
o5
o1
o1
o1
o1
n0.729
o2
v0
o44
o16
o2
n5.6
v4
o2
v1
o44
o16
o2
o5
o1
n5.6
v8
n2
v5
o2
v2
o44
o16
o2
o5
o1
n5.6
v9
n2
v6
o2
v3
o44
o16
o2
o5
o1
n5.6
v10
n2
v7
n2
o5
o1
o1
o1
o1
n0.72
o2
v0
o44
o16
o2
n5.7
v4
o2
v1
o44
o16
o2
o5
o1
n5.7
v8
n2
v5
o2
v2
o44
o16
o2
o5
o1
n5.7
v9
n2
v6
o2
v3
o44
o16
o2
o5
o1
n5.7
v10
n2
v7
n2
o5
o1
o1
o1
o1
n0.636
o2
v0
o44
o16
o2
n5.8
v4
o2
v1
o44
o16
o2
o5
o1
n5.8
v8
n2
v5
o2
v2
o44
o16
o2
o5
o1
n5.8
v9
n2
v6
o2
v3
o44
o16
o2
o5
o1
n5.8
v10
n2
v7
n2
o5
o1
o1
o1
o1
n0.581
o2
v0
o44
o16
o2
n5.9
v4
o2
v1
o44
o16
o2
o5
o1
n5.9
v8
n2
v5
o2
v2
o44
o16
o2
o5
o1
n5.9
v9
n2
v6
o2
v3
o44
o16
o2
o5
o1
n5.9
v10
n2
v7
n2
o5
o1
o1
o1
o1
n0.428
o2
v0
o44
o16
o2
n6
v4
o2
v1
o44
o16
o2
o5
o1
n6
v8
n2
v5
o2
v2
o44
o16
o2
o5
o1
n6
v9
n2
v6
o2
v3
o44
o16
o2
o5
o1
n6
v10
n2
v7
n2
o5
o1
o1
o1
o1
n0.292
o2
v0
o44
o16
o2
n6.1
v4
o2
v1
o44
o16
o2
o5
o1
n6.1
v8
n2
v5
o2
v2
o44
o16
o2
o5
o1
n6.1
v9
n2
v6
o2
v3
o44
o16
o2
o5
o1
n6.1
v10
n2
v7
n2
o5
o1
o1
o1
o1
n0.162
o2
v0
o44
o16
o2
n6.2
v4
o2
v1
o44
o16
o2
o5
o1
n6.2
v8
n2
v5
o2
v2
o44
o16
o2
o5
o1
n6.2
v9
n2
v6
o2
v3
o44
o16
o2
o5
o1
n6.2
v10
n2
v7
n2
o5
o1
o1
o1
o1
n0.098
o2
v0
o44
o16
o2
n6.3
v4
o2
v1
o44
o16
o2
o5
o1
n6.3
v8
n2
v5
o2
v2
o44
o16
o2
o5
o1
n6.3
v9
n2
v6
o2
v3
o44
o16
o2
o5
o1
n6.3
v10
n2
v7
n2
o5
o1
o1
o1
o1
n0.054
o2
v0
o44
o16
o2
n6.4
v4
o2
v1
o44
o16
o2
o5
o1
n6.4
v8
n2
v5
o2
v2
o44
o16
o2
o5
o1
n6.4
v9
n2
v6
o2
v3
o44
o16
o2
o5
o1
n6.4
v10
n2
v7
n2
k10
0
0
0
0
0
0
0
0
0
0
G0 11
0 0
1 0
2 0
3 0
4 0
5 0
6 0
7 0
8 0
9 0
10 0
